Assets/LKHProbs~/skull.76.tsp
NAME : GeneratedProblem
COMMENT : SVGCrosshatch
TYPE : TSP
DIMENSION : 29
EDGE_WEIGHT_TYPE : EUC_2D
NODE_COORD_SECTION
1 4700 1400
2 4700 1500
3 4800 1300
4 4800 1400
5 4800 1500
6 5000 900
7 5000 1000
8 5000 1100
9 5000 1200
10 5100 900
11 5100 1000
12 5100 1100
13 5100 1200
14 5200 700
15 5200 800
16 5200 900
17 5200 1000
18 5200 1100
19 5200 1200
20 5200 1300
21 5200 1400
22 5200 1500
23 5300 900
24 5300 1000
25 5300 1100
26 5300 1200
27 5300 1300
28 5300 1400
29 5300 1500
EOF
