Assets/LKHProbs~/skull.76.out.txt
NAME : GeneratedProblem.3431.tour
COMMENT : Length = 3431
COMMENT : Found by LKH [Keld Helsgaun] Sun Nov 25 13:18:03 2018
TYPE : TOUR
DIMENSION : 29
TOUR_SECTION
1
2
5
4
9
13
12
11
17
18
19
20
21
22
29
28
27
26
25
24
23
14
15
16
10
6
7
8
3
-1
EOF
